NAME: br17Preorder
TYPE: ATSP
DIMENSION: 17
EDGE_WEIGHT_TYPE: EXPLICIT
EDGE_WEIGHT_FORMAT: FULL_MATRIX 
EDGE_WEIGHT_SECTION
9999	1	2	8	8	4	4	2	2	1	1	0	1	2	4	4	2	
1	9999	1	8	8	4	4	2	2	0	0	1	0	1	4	4	2	
2	1	9999	10	10	8	8	6	6	1	1	2	1	0	8	8	6	
8	8	11	9999	0	3	3	5	5	8	8	8	8	11	3	3	5	
8	8	11	0	9999	3	3	5	5	8	8	8	8	11	3	3	5	
4	4	9	3	3	9999	0	4	4	4	4	4	4	9	0	0	4	
4	4	9	3	3	0	9999	4	4	4	4	4	4	9	0	0	4	
2	2	7	5	5	4	4	9999	0	2	2	2	2	7	4	4	0	
2	2	7	5	5	4	4	0	9999	2	2	2	2	7	4	4	0	
1	0	1	8	8	4	4	2	2	9999	0	1	0	1	4	4	2	
1	0	1	8	8	4	4	2	2	0	9999	1	0	1	4	4	2	
0	1	2	8	8	4	4	2	2	1	1	9999	1	2	4	4	2	
1	0	1	8	8	4	4	2	2	0	0	1	9999	1	4	4	2	
2	1	0	10	10	8	8	6	6	1	1	2	1	9999	8	8	6	
4	4	9	3	3	0	0	4	4	4	4	4	4	9	9999	0	4	
4	4	9	3	3	0	0	4	4	4	4	4	4	9	0	9999	4	
2	2	7	5	5	4	4	0	0	2	2	2	2	7	4	4	9999	
EOF